p wcnf 4000 400 1
1 1 0
1 2 0
1 3 0
1 4 0
1 5 0
1 6 0
1 7 0
1 8 0
1 9 0
1 10 0
1 11 0
1 12 0
1 13 0
1 14 0
1 15 0
1 1 1 1 1 1 1 1 1 1 1 1 1 2 2 0
1 2 2 2 2 2 2 2 2 2 2 2 2 2 2 0
1 2 2 2 2 2 2 2 2 2 2 2 2 2 2 0
1 2 2 2 2 2 2 2 2 2 2 2 3 3 3 0
1 3 3 3 3 3 3 3 3 3 3 3 3 3 3 0
1 3 3 3 3 3 3 3 3 3 3 3 3 3 3 0
1 3 3 4 4 4 4 4 4 4 4 4 4 4 4 0
1 4 4 4 4 4 4 4 4 4 4 4 4 4 4 0
1 4 4 4 4 4 4 4 4 4 4 4 4 4 4 0
1 4 5 5 5 5 5 5 5 5 5 5 5 5 5 0
1 5 5 5 5 5 5 5 5 5 5 5 5 5 5 0
1 5 5 5 5 5 5 5 5 5 5 5 6 6 6 0
1 6 6 6 6 6 6 6 6 6 6 6 6 6 6 0
1 6 6 6 6 6 6 6 6 6 6 6 6 7 7 0
1 7 7 7 7 7 7 7 7 7 7 7 7 7 7 0
1 7 7 7 7 7 7 7 7 7 7 7 7 7 7 0
1 7 7 7 8 8 8 8 8 8 8 8 8 8 8 0
1 8 8 8 8 8 8 8 8 8 8 8 8 8 8 0
1 8 8 8 8 8 8 9 9 9 9 9 9 9 9 0
1 9 9 9 9 9 9 9 9 9 9 9 9 9 9 0
1 9 9 9 9 9 9 9 9 9 9 9 9 9 9 0
1 9 9 9 9 9 9 9 9 10 10 10 10 10 10 0
1 10 10 10 10 10 10 10 10 10 10 10 10 10 10 0
1 10 10 10 10 10 10 10 10 10 10 10 10 10 10 0
1 10 10 10 10 10 10 11 11 11 11 11 11 11 11 0
1 11 11 11 11 11 11 11 11 11 11 11 11 11 11 0
1 11 11 11 11 11 11 11 11 11 11 11 11 11 11 0
1 11 11 11 11 12 12 12 12 12 12 12 12 12 12 0
1 12 12 12 12 12 12 12 12 12 12 12 12 12 12 0
1 12 12 12 12 12 12 12 12 12 12 12 12 12 13 0
1 13 13 13 13 13 13 13 13 13 13 13 13 13 13 0
1 13 13 13 13 13 13 13 13 13 13 13 13 13 13 0
1 13 13 13 13 14 14 14 14 14 14 14 14 14 14 0
1 14 14 14 14 14 14 14 14 14 14 14 14 14 14 0
1 14 14 14 14 14 14 15 15 15 15 15 15 15 15 0
1 15 15 15 15 15 15 15 15 15 15 15 15 15 15 0
1 15 15 15 15 15 15 15 15 15 15 15 15 15 15 0
1 15 15 15 15 15 15 15 15 16 16 16 16 16 16 0
1 16 16 16 16 16 16 16 16 16 16 16 16 16 16 0
1 16 16 16 16 16 16 16 16 16 16 16 16 16 16 0
1 16 16 16 16 16 16 16 16 17 17 17 17 17 17 0
1 17 17 17 17 17 17 17 17 17 17 17 17 17 17 0
1 17 17 17 17 17 17 17 17 18 18 18 18 18 18 0
1 18 18 18 18 18 18 18 18 18 18 18 18 18 18 0
1 18 18 18 18 18 18 18 18 18 18 18 19 19 19 0
1 19 19 19 19 19 19 19 19 19 19 19 19 19 19 0
1 19 19 19 19 19 19 19 19 19 19 19 19 19 19 0
1 19 19 19 19 19 19 20 20 20 20 20 20 20 20 0
1 20 20 20 20 20 20 20 20 20 20 20 20 20 20 0
1 20 20 20 20 20 20 20 20 20 20 20 20 20 20 0
1 20 20 21 21 21 21 21 21 21 21 21 21 21 21 0
1 21 21 21 21 21 21 21 21 21 21 21 21 21 21 0
1 21 21 21 21 21 21 21 21 22 22 22 22 22 22 0
1 22 22 22 22 22 22 22 22 22 22 22 22 22 22 0
1 22 22 22 22 22 22 22 22 22 22 22 22 22 22 0
1 22 22 22 23 23 23 23 23 23 23 23 23 23 23 0
1 23 23 23 23 23 23 23 23 23 23 23 23 23 23 0
1 23 23 23 23 23 23 23 24 24 24 24 24 24 24 0
1 24 24 24 24 24 24 24 24 24 24 24 24 24 24 0
1 24 24 24 24 24 24 24 24 24 24 24 24 24 24 0
1 24 24 24 24 24 24 24 25 25 25 25 25 25 25 0
1 25 25 25 25 25 25 25 25 25 25 25 25 25 25 0
1 25 25 25 25 25 25 25 25 25 25 25 25 25 25 0
1 26 26 26 26 26 26 26 26 26 26 26 26 26 26 0
1 26 26 26 26 26 26 26 27 27 27 27 27 27 27 0
1 27 27 27 27 27 27 27 27 27 27 27 27 27 27 0
1 27 27 27 27 27 27 27 27 27 27 27 27 27 27 0
1 27 27 27 27 27 27 27 27 28 28 28 28 28 28 0
1 28 28 28 28 28 28 28 28 28 28 28 28 28 28 0
1 28 28 28 28 28 28 28 28 28 28 29 29 29 29 0
1 29 29 29 29 29 29 29 29 29 29 29 29 29 29 0
1 29 29 29 29 29 29 29 29 29 29 29 29 29 29 0
1 29 29 30 30 30 30 30 30 30 30 30 30 30 30 0
1 30 30 30 30 30 30 30 30 30 30 30 30 30 30 0
1 30 30 30 30 30 30 30 31 31 31 31 31 31 31 0
1 31 31 31 31 31 31 31 31 31 31 31 31 31 31 0
1 31 31 31 31 31 31 31 31 31 31 31 31 31 31 0
1 31 31 31 31 31 31 31 31 32 32 32 32 32 32 0
1 32 32 32 32 32 32 32 32 32 32 32 32 32 32 0
1 32 32 32 32 32 32 32 32 32 32 32 32 32 32 0
1 32 32 32 32 33 33 33 33 33 33 33 33 33 33 0
1 33 33 33 33 33 33 33 33 33 33 33 33 33 33 0
1 33 33 33 33 33 33 33 33 33 33 34 34 34 34 0
1 34 34 34 34 34 34 34 34 34 34 34 34 34 34 0
1 34 34 34 34 34 34 34 34 34 34 34 34 35 35 0
1 35 35 35 35 35 35 35 35 35 35 35 35 35 35 0
1 35 35 35 35 35 35 35 35 35 35 35 35 35 35 0
1 36 36 36 36 36 36 36 36 36 36 36 36 36 36 0
1 36 36 36 36 36 36 36 36 36 36 36 36 36 36 0
1 36 36 36 36 36 36 36 36 36 36 36 36 36 36 0
1 36 37 37 37 37 37 37 37 37 37 37 37 37 37 0
1 37 37 37 37 37 37 37 37 37 37 37 37 37 37 0
1 37 37 37 37 37 37 37 37 37 37 37 37 37 37 0
1 37 37 37 37 37 37 37 37 38 38 38 38 38 38 0
1 38 38 38 38 38 38 38 38 38 38 38 38 38 38 0
1 38 38 38 38 38 38 38 38 38 38 38 38 38 38 0
1 38 38 38 38 38 39 39 39 39 39 39 39 39 39 0
1 39 39 39 39 39 39 39 39 39 39 39 39 39 39 0
1 39 39 39 39 39 39 39 39 39 39 39 39 39 39 0
1 39 39 39 39 39 40 40 40 40 40 40 40 40 40 0
1 40 40 40 40 40 40 40 40 40 40 40 40 40 40 0
1 40 40 40 40 40 40 40 40 40 40 41 41 41 41 0
1 41 41 41 41 41 41 41 41 41 41 41 41 41 41 0
1 41 41 41 41 41 41 41 41 41 41 41 41 41 41 0
1 41 41 41 41 41 41 41 41 42 42 42 42 42 42 0
1 42 42 42 42 42 42 42 42 42 42 42 42 42 42 0
1 42 42 42 42 42 42 42 42 42 42 42 42 42 42 0
1 42 42 42 42 43 43 43 43 43 43 43 43 43 43 0
1 43 43 43 43 43 43 43 43 43 43 43 43 43 43 0
1 43 44 44 44 44 44 44 44 44 44 44 44 44 44 0
1 44 44 44 44 44 44 44 44 44 44 44 44 44 44 0
1 44 44 44 44 44 44 44 44 44 44 44 44 44 44 0
1 44 44 45 45 45 45 45 45 45 45 45 45 45 45 0
1 45 45 45 45 45 45 45 45 45 45 45 45 45 45 0
1 45 45 45 45 45 45 45 45 45 45 45 45 45 45 0
1 45 45 45 45 46 46 46 46 46 46 46 46 46 46 0
1 46 46 46 46 46 46 46 46 46 46 46 46 46 46 0
1 46 46 46 46 46 46 46 46 46 46 46 46 46 46 0
1 47 47 47 47 47 47 47 47 47 47 47 47 47 47 0
1 47 47 47 47 47 47 47 47 47 47 47 47 47 47 0
1 47 47 47 47 47 48 48 48 48 48 48 48 48 48 0
1 48 48 48 48 48 48 48 48 48 48 48 48 48 48 0
1 48 48 48 48 48 48 48 48 48 48 48 48 48 48 0
1 48 48 48 48 49 49 49 49 49 49 49 49 49 49 0
1 49 49 49 49 49 49 49 49 49 49 49 49 49 49 0
1 49 49 49 49 49 49 49 49 49 50 50 50 50 50 0
1 50 50 50 50 50 50 50 50 50 50 50 50 50 50 0
1 50 50 50 50 50 50 50 50 50 50 50 50 50 50 0
1 50 50 50 50 50 50 50 50 50 50 50 50 50 50 0
1 51 51 51 51 51 51 51 51 51 51 51 51 51 51 0
1 51 51 51 51 51 51 51 51 51 51 51 51 51 51 0
1 51 51 51 51 51 51 52 52 52 52 52 52 52 52 0
1 52 52 52 52 52 52 52 52 52 52 52 52 52 52 0
1 52 52 52 52 52 52 52 52 52 52 52 52 52 52 0
1 52 52 52 52 52 53 53 53 53 53 53 53 53 53 0
1 53 53 53 53 53 53 53 53 53 53 53 53 53 53 0
1 53 53 53 53 53 53 53 53 53 53 53 53 53 53 0
1 53 53 53 53 53 53 53 53 53 53 53 54 54 54 0
1 54 54 54 54 54 54 54 54 54 54 54 54 54 54 0
1 54 54 54 54 54 54 54 54 54 54 54 54 54 54 0
1 54 54 54 54 54 54 54 54 54 54 54 54 55 55 0
1 55 55 55 55 55 55 55 55 55 55 55 55 55 55 0
1 55 55 55 55 55 55 55 55 55 55 55 55 55 55 0
1 55 55 55 55 55 55 55 55 55 55 55 55 55 55 0
1 56 56 56 56 56 56 56 56 56 56 56 56 56 56 0
1 56 56 56 56 56 56 56 56 56 56 56 56 56 56 0
1 56 56 56 56 56 56 56 56 56 56 56 56 56 56 0
1 57 57 57 57 57 57 57 57 57 57 57 57 57 57 0
1 57 57 57 57 57 57 57 57 57 57 57 57 57 57 0
1 57 57 57 57 58 58 58 58 58 58 58 58 58 58 0
1 58 58 58 58 58 58 58 58 58 58 58 58 58 58 0
1 58 58 58 58 58 58 58 58 58 58 58 58 58 58 0
1 59 59 59 59 59 59 59 59 59 59 59 59 59 59 0
1 59 59 59 59 59 59 59 59 59 59 59 59 59 59 0
1 59 59 59 59 59 59 59 59 59 60 60 60 60 60 0
1 60 60 60 60 60 60 60 60 60 60 60 60 60 60 0
1 60 60 60 60 60 60 60 60 60 60 60 60 60 60 0
1 60 60 60 60 60 60 60 60 60 61 61 61 61 61 0
1 61 61 61 61 61 61 61 61 61 61 61 61 61 61 0
1 61 61 61 61 61 61 61 61 61 61 61 61 61 61 0
1 61 61 61 61 61 61 62 62 62 62 62 62 62 62 0
1 62 62 62 62 62 62 62 62 62 62 62 62 62 62 0
1 62 62 62 62 62 62 62 62 62 62 62 62 62 62 0
1 62 62 62 62 62 62 62 62 62 62 62 62 62 62 0
1 62 62 62 63 63 63 63 63 63 63 63 63 63 63 0
1 63 63 63 63 63 63 63 63 63 63 63 63 63 63 0
1 63 63 63 63 63 63 63 63 63 63 63 63 64 64 0
1 64 64 64 64 64 64 64 64 64 64 64 64 64 64 0
1 64 64 64 64 64 64 64 64 64 64 64 64 64 64 0
1 64 64 64 64 64 64 64 64 64 64 64 64 65 65 0
1 65 65 65 65 65 65 65 65 65 65 65 65 65 65 0
1 65 65 65 65 65 65 65 65 65 65 65 65 65 65 0
1 65 65 65 65 65 65 65 65 65 65 65 65 65 65 0
1 66 66 66 66 66 66 66 66 66 66 66 66 66 66 0
1 66 66 66 66 66 66 66 66 66 66 66 66 66 66 0
1 66 66 66 66 66 66 66 67 67 67 67 67 67 67 0
1 67 67 67 67 67 67 67 67 67 67 67 67 67 67 0
1 67 67 67 67 67 67 67 67 67 67 67 67 67 67 0
1 68 68 68 68 68 68 68 68 68 68 68 68 68 68 0
1 68 68 68 68 68 68 68 68 68 68 68 68 68 68 0
1 68 68 68 68 68 68 69 69 69 69 69 69 69 69 0
1 69 69 69 69 69 69 69 69 69 69 69 69 69 69 0
1 69 69 69 69 69 69 69 69 69 69 69 70 70 70 0
1 70 70 70 70 70 70 70 70 70 70 70 70 70 70 0
1 70 70 70 70 70 70 70 70 70 70 70 70 70 70 0
1 70 70 70 70 70 70 71 71 71 71 71 71 71 71 0
1 71 71 71 71 71 71 71 71 71 71 71 71 71 71 0
1 71 71 71 71 71 71 71 71 71 71 71 71 71 71 0
1 71 71 71 71 71 72 72 72 72 72 72 72 72 72 0
1 72 72 72 72 72 72 72 72 72 72 72 72 72 72 0
1 72 72 72 72 72 72 72 72 72 72 72 72 72 72 0
1 72 72 72 72 72 73 73 73 73 73 73 73 73 73 0
1 73 73 73 73 73 73 73 73 73 73 73 73 73 73 0
1 73 73 73 73 73 73 73 73 73 73 73 73 73 73 0
1 74 74 74 74 74 74 74 74 74 74 74 74 74 74 0
1 74 74 74 74 74 74 74 74 74 74 74 74 74 74 0
1 74 74 74 74 74 74 74 74 75 75 75 75 75 75 0
1 75 75 75 75 75 75 75 75 75 75 75 75 75 75 0
1 75 75 75 75 75 75 75 75 75 75 75 75 75 75 0
1 75 75 75 75 75 75 75 75 76 76 76 76 76 76 0
1 76 76 76 76 76 76 76 76 76 76 76 76 76 76 0
1 76 76 76 76 76 76 76 76 76 76 76 76 76 76 0
1 77 77 77 77 77 77 77 77 77 77 77 77 77 77 0
1 77 77 77 77 77 77 77 77 77 77 77 77 77 77 0
1 77 77 77 77 77 77 77 77 77 77 77 77 77 77 0
1 78 78 78 78 78 78 78 78 78 78 78 78 78 78 0
1 78 78 78 78 78 78 78 78 78 78 78 78 78 78 0
1 78 78 78 78 79 79 79 79 79 79 79 79 79 79 0
1 79 79 79 79 79 79 79 79 79 79 79 79 79 79 0
1 79 79 79 79 80 80 80 80 80 80 80 80 80 80 0
1 80 80 80 80 80 80 80 80 80 80 80 80 80 80 0
1 80 80 80 80 80 80 80 80 80 80 80 80 80 80 0
1 81 81 81 81 81 81 81 81 81 81 81 81 81 81 0
1 81 81 81 81 81 81 81 81 81 81 81 81 81 81 0
1 81 81 81 81 81 81 81 81 81 81 82 82 82 82 0
1 82 82 82 82 82 82 82 82 82 82 82 82 82 82 0
1 82 82 82 82 82 82 82 82 82 82 82 82 82 82 0
1 82 82 83 83 83 83 83 83 83 83 83 83 83 83 0
1 83 83 83 83 83 83 83 83 83 83 83 83 83 83 0
1 83 83 83 83 83 83 83 83 83 83 83 83 83 83 0
1 84 84 84 84 84 84 84 84 84 84 84 84 84 84 0
1 84 84 84 84 84 84 84 84 84 84 84 84 84 84 0
1 85 85 85 85 85 85 85 85 85 85 85 85 85 85 0
1 85 85 85 85 85 85 85 85 85 85 85 85 85 85 0
1 85 85 85 85 85 85 85 85 85 85 85 85 85 85 0
1 86 86 86 86 86 86 86 86 86 86 86 86 86 86 0
1 86 86 86 86 86 86 86 86 86 86 86 86 86 86 0
1 86 86 86 86 86 86 86 86 86 86 86 86 86 86 0
1 87 87 87 87 87 87 87 87 87 87 87 87 87 87 0
1 87 87 87 87 87 87 87 87 87 87 87 87 87 87 0
1 88 88 88 88 88 88 88 88 88 88 88 88 88 88 0
1 88 88 88 88 88 88 88 88 88 88 88 88 88 88 0
1 88 88 88 88 88 88 88 88 88 88 88 88 88 88 0
1 88 88 88 88 88 88 88 89 89 89 89 89 89 89 0
1 89 89 89 89 89 89 89 89 89 89 89 89 89 89 0
1 89 89 89 89 89 89 89 89 89 89 89 89 89 89 0
1 90 90 90 90 90 90 90 90 90 90 90 90 90 90 0
1 90 90 90 90 90 90 90 90 90 90 90 90 90 90 0
1 90 90 90 90 90 90 90 90 90 90 90 90 90 90 0
1 90 91 91 91 91 91 91 91 91 91 91 91 91 91 0
1 91 91 91 91 91 91 91 91 91 91 91 91 91 91 0
1 91 91 91 91 91 91 91 91 91 91 91 91 91 91 0
1 92 92 92 92 92 92 92 92 92 92 92 92 92 92 0
1 92 92 92 92 92 92 92 92 92 92 92 92 92 92 0
1 92 92 92 92 92 92 93 93 93 93 93 93 93 93 0
1 93 93 93 93 93 93 93 93 93 93 93 93 93 93 0
1 93 93 93 93 93 93 93 93 94 94 94 94 94 94 0
1 94 94 94 94 94 94 94 94 94 94 94 94 94 94 0
1 94 94 94 94 94 94 94 94 94 94 94 94 94 94 0
1 94 94 94 94 94 94 94 94 94 94 95 95 95 95 0
1 95 95 95 95 95 95 95 95 95 95 95 95 95 95 0
1 95 95 95 95 95 95 95 95 95 95 95 95 95 95 0
1 95 95 95 95 95 95 95 95 95 95 95 95 95 95 0
1 96 96 96 96 96 96 96 96 96 96 96 96 96 96 0
1 96 96 96 96 96 96 96 96 96 96 96 96 96 96 0
1 96 96 96 96 96 96 96 96 96 96 96 97 97 97 0
1 97 97 97 97 97 97 97 97 97 97 97 97 97 97 0
1 97 97 97 97 97 97 97 97 97 97 97 97 98 98 0
1 98 98 98 98 98 98 98 98 98 98 98 98 98 98 0
1 98 98 98 98 98 98 98 98 98 98 98 98 98 98 0
1 98 98 98 98 98 98 98 98 98 98 98 99 99 99 0
1 99 99 99 99 99 99 99 99 99 99 99 99 99 99 0
1 99 99 99 99 99 99 99 99 99 99 99 99 99 99 0
1 99 99 99 99 100 100 100 100 100 100 100 100 100 100 0
1 100 100 100 100 100 100 100 100 100 100 100 100 100 100 0
1 100 100 100 100 100 100 100 100 100 0
1  0
1 150 157 159 174 227 240 253 302 304 309 321 376 481 519 0
1 807 839 850 872 882 897 1010 1147 1171 1304 1449 1549 1589 1617 0
1 1664 1676 1757 1813 1926 2001 2132 2232 2239 2258 2296 2338 2351 2354 0
1 2427 2449 2491 2688 2701 2717 2758 2762 2769 2906 2947 2984 3011 3022 0
1 3229 3358 3399 3423 3429 3443 3455 3469 3476 3517 3536 3586 3666 3717 0
1 3910 3931 3952 0
1  0
1 145 207 224 232 314 318 388 481 504 517 518 600 666 739 0
1 864 932 973 1046 1087 1149 1184 1186 1239 1258 1336 1341 1464 1479 0
1 1684 1828 1850 1861 1985 2061 2133 2256 2354 2356 2426 2526 2659 2660 0
1 2693 2704 2733 2780 2785 2786 2798 2891 2911 3051 3130 3151 3192 3199 0
1 3251 3379 3441 3524 3531 3611 3694 3729 3768 3793 3877 3977 0
1  0
1 36 85 101 123 156 157 183 271 630 639 666 743 777 835 0
1 937 966 988 1041 1077 1103 1132 1159 1208 1243 1252 1301 1331 1380 0
1 1503 1505 1603 1823 1826 1850 1865 1904 1926 2132 2158 2172 2193 2212 0
1 2315 2342 2359 2363 2420 2439 2496 2668 2724 2794 2899 2914 2950 3004 0
1 3063 3138 3202 3210 3213 3241 3282 3330 3361 3372 3393 3415 3430 3437 0
1 3736 3763 3766 3772 3838 3860 3935 0
1  0
1 91 122 129 160 198 225 341 352 358 380 475 539 593 616 0
1 818 884 927 931 990 991 1005 1100 1123 1259 1260 1277 1290 1334 0
1 1404 1431 1441 1469 1473 1566 1667 1716 1811 1847 1910 1933 1968 2086 0
1 2145 2177 2258 2267 2331 2337 2394 2438 2440 2463 2464 2519 2520 2529 0
1 2613 2638 2693 2701 2763 2780 3115 3124 3204 3281 3327 3444 3470 3575 0
1 3659 3698 3700 3884 3930 3932 3984 0
1  0
1 20 117 241 243 384 438 584 585 743 786 787 874 879 900 0
1 982 995 1170 1192 1200 1207 1257 1260 1356 1373 1403 1476 1588 1662 0
1 1822 1857 1903 1953 2047 2092 2114 2175 2246 2259 2305 2343 2423 2521 0
1 2592 2655 2681 2692 2769 2810 2844 2902 2931 2933 3006 3291 3338 3462 0
1 3563 3622 3664 3746 3767 3938 3945 0
1  0
1 184 334 482 483 491 527 670 690 730 754 763 806 842 861 0
1 1076 1169 1180 1195 1229 1258 1263 1332 1381 1405 1469 1489 1515 1547 0
1 1877 1934 2072 2085 2099 2104 2153 2158 2165 2178 2182 2210 2230 2285 0
1 2429 2482 2555 2736 2740 2756 2792 2897 2927 2980 2998 3056 3079 3174 0
1 3241 3250 3323 3428 3447 3455 3482 3574 3620 3636 3717 3722 3735 3744 0
1 3887 3912 0
1  0
1 106 117 146 154 191 271 326 355 366 405 507 562 602 606 0
1 665 770 835 906 919 975 984 1093 1099 1128 1204 1248 1299 1398 0
1 1519 1619 1635 1700 1702 1729 1747 1881 1966 1982 1995 2051 2149 2165 0
1 2223 2259 2302 2338 2370 2450 2458 2480 2663 2687 2695 2713 2843 2875 0
1 2986 3095 3110 3121 3198 3251 3305 3397 3408 3410 3467 3468 3498 3505 0
1 3528 3554 3605 3623 3647 3698 3703 3734 3780 3881 3898 3969 3985 0
1  0
1 162 179 227 238 250 403 424 473 534 679 714 715 719 735 0
1 847 867 884 965 1062 1063 1228 1278 1293 1330 1353 1354 1425 1509 0
1 1760 1763 1803 1827 1831 1835 1891 2044 2123 2186 2262 2263 2423 2433 0
1 2443 2472 2498 2571 2584 2592 2653 2659 2690 2724 2761 2809 2889 3001 0
1 3112 3114 3140 3159 3192 3230 3420 3525 3528 3557 3566 3651 3654 3660 0
1 3694 3697 3839 3861 3862 3868 3969 0
1  0
1 119 129 139 164 195 236 238 260 282 293 324 390 394 429 0
1 530 534 560 631 691 710 749 751 810 829 883 893 1137 1189 0
1 1265 1273 1305 1387 1388 1457 1477 1509 1668 1758 1772 1774 1909 1921 0
1 1987 2012 2062 2132 2142 2339 2349 2400 2628 2673 2727 2743 2785 2806 0
1 2825 2898 3048 3051 3130 3137 3258 3302 3342 3437 3469 3690 3706 3739 0
1 3854 3934 0
1  0
1 66 82 84 110 169 209 339 733 828 871 880 903 1006 1039 0
1 1191 1246 1294 1370 1432 1437 1438 1485 1496 1522 1608 1627 1642 1669 0
1 1896 1901 1912 2029 2036 2135 2141 2192 2261 2312 2339 2411 2473 2520 0
1 2530 2536 2552 2565 2598 2619 2678 2703 2713 2722 2767 2845 2906 3021 0
1 3127 3191 3206 3313 3383 3421 3449 3456 3483 3487 3495 3528 3558 3612 0
1 3652 3726 3818 3845 3923 3938 3975 0
1  0
1 101 199 295 311 342 373 533 557 631 636 721 729 798 880 0
1 908 925 948 993 1035 1241 1373 1385 1400 1477 1510 1512 1580 1586 0
1 1667 1679 1695 1827 2090 2170 2222 2241 2263 2296 2322 2334 2400 2433 0
1 2523 2544 2708 2746 2759 2768 2807 2808 2814 2815 2850 2941 2948 3018 0
1 3045 3088 3102 3243 3342 3532 3587 3605 3715 3735 3768 3771 3786 3853 0
1 3925 0
1  0
1 156 161 162 336 340 358 388 394 512 538 553 556 600 606 0
1 664 743 778 933 934 944 989 1006 1099 1102 1174 1181 1205 1296 0
1 1437 1449 1510 1558 1590 1669 1690 1752 1806 1823 1844 1966 1994 2074 0
1 2276 2342 2374 2530 2563 2649 2734 2832 2850 2897 2940 3025 3246 3288 0
1 3510 3559 3717 3733 3792 3883 3900 3946 3969 0
1  0
1 39 42 118 187 196 305 363 391 438 546 595 715 734 738 0
1 761 771 783 789 1008 1031 1135 1138 1150 1186 1279 1284 1344 1395 0
1 1518 1520 1531 1540 1667 1678 1701 1716 1739 1914 1918 1920 1924 1954 0
1 2034 2053 2130 2177 2179 2215 2228 2298 2299 2340 2423 2548 2634 2708 0
1 2781 2858 2951 3022 3064 3065 3095 3105 3130 3140 3170 3171 3210 3240 0
1 3407 3490 3589 3607 3614 3814 3894 3931 3945 3993 0
1  0
1 74 116 172 199 230 295 370 457 463 487 674 918 950 956 0
1 980 1183 1238 1299 1347 1605 1612 1691 1726 1795 1838 1924 2180 2182 0
1 2402 2447 2460 2495 2499 2522 2527 2568 2621 2695 2761 2764 2807 2836 0
1 2965 3092 3166 3169 3218 3239 3332 3355 3562 3570 3627 3683 3711 3715 0
1 3908 0
1  0
1 115 179 198 226 264 269 299 343 458 504 507 538 544 577 0
1 642 721 752 829 847 848 883 964 1299 1381 1386 1483 1503 1529 0
1 1614 1626 1671 1719 1824 1833 1876 1994 1999 2083 2138 2196 2199 2342 0
1 2384 2564 2609 2784 2838 3007 3032 3053 3059 3168 3183 3319 3348 3363 0
1 3378 3437 3471 3529 3548 3560 3884 0
1  0
1 84 140 187 188 203 384 401 416 426 503 682 711 726 819 0
1 846 959 963 978 992 1099 1110 1134 1220 1269 1289 1294 1337 1419 0
1 1470 1493 1541 1546 1547 1600 1613 1664 1749 1891 1967 2016 2073 2090 0
1 2216 2223 2274 2307 2337 2392 2400 2541 2543 2582 2625 2642 2657 2752 0
1 2933 2949 2954 2977 3054 3058 3060 3160 3179 3289 3391 3413 3462 3471 0
1 3533 3687 3794 3820 3837 3899 3982 0
1  0
1 174 272 403 413 447 546 584 585 610 626 658 793 825 847 0
1 860 950 1151 1168 1221 1243 1257 1269 1353 1493 1598 1711 1755 1848 0
1 1852 1868 1882 1899 1907 1929 1969 2071 2109 2140 2257 2266 2311 2385 0
1 2465 2547 2574 2653 2680 2701 2758 2857 2858 3102 3106 3108 3128 3146 0
1 3347 3357 3403 3433 3454 3532 3580 3625 3627 3669 3692 3721 3730 3787 0
1 3827 3977 0
1  0
1 87 114 175 182 267 271 290 310 359 420 478 483 581 589 0
1 630 640 746 755 824 864 964 985 1064 1073 1094 1158 1177 1204 0
1 1273 1289 1303 1325 1355 1369 1656 1660 1715 1722 1793 1827 1906 2130 0
1 2231 2250 2322 2395 2449 2471 2522 2535 2564 2575 2638 2716 2726 2854 0
1 3009 3018 3030 3056 3083 3084 3091 3094 3106 3146 3192 3292 3368 3458 0
1 3559 3626 3638 3755 3783 3812 3820 3840 3853 0
1  0
1 73 93 181 200 275 296 388 394 430 479 493 501 538 590 0
1 662 975 1070 1107 1137 1140 1182 1303 1330 1346 1376 1548 1591 1653 0
1 1672 1683 1709 1840 1861 1909 1984 2044 2064 2085 2136 2148 2229 2242 0
1 2281 2291 2299 2306 2361 2368 2434 2440 2507 2541 2588 2648 2761 2788 0
1 2974 2986 2995 3013 3048 3059 3113 3116 3182 3187 3200 3212 3223 3346 0
1 3401 3416 3477 3493 3531 3571 3643 3693 3835 3905 3945 3984 0
1  0
1 51 74 99 119 172 203 255 296 300 318 346 386 443 557 0
1 616 665 721 780 781 790 827 946 1033 1093 1195 1296 1339 1370 0
1 1445 1541 1595 1598 1620 1712 1725 1912 1914 2005 2007 2013 2040 2076 0
1 2142 2194 2281 2296 2334 2482 2505 2592 2749 2839 2840 2891 2903 2934 0
1 2971 3010 3077 3083 3170 3199 3203 3266 3280 3303 3314 3561 3578 3814 0
